(set-logic HORN)
(declare-fun state (Int Int Int Int Int Int Int Int Int Int Int Int Int Int Int Int Int Int Int Int Int Int Int Bool Bool Bool (Array Int Int) (Array Int Int) (Array Int Int) (Array Int Int) (Array Int Int) (Array Int Int) (Array Int Int) (Array Int Int) (Array Int Int) (Array Int Int) (Array Int Int) (Array Int Int)) Bool)
(assert (forall ((|A_6| Int) (|B_6| Int) (|C_6| Int) (|E_6| Int) (|H_6| Int) (|I_6| Int) (|J_6| Int) (|K_6| Int) (|L_5| Int) (|M_4| Int) (|N_2| Int) (|O_0| Int) (|.y.4| Int) (|.y.5| Int) (|.y.6| Int) (|.y.7| Int) (|.y.8| Int) (|.y.9| Int) (|.y.10| Int) (|.y.11| Int) (|.y.12| Int) (|.y.13| Int) (|.y.14| Int) (|.loc.15| Bool) (|.loc.16| Bool) (|.loc.17| Bool) (|G_6| (Array Int Int)) (|Z| (Array Int Int)) (|D_7.1| (Array Int Int)) (|H_7| (Array Int Int)) (|G_7| (Array Int Int)) (|F_6| (Array Int Int)) (|E_4| (Array Int Int)) (|F_4| (Array Int Int)) (|D_8.1| (Array Int Int)) (|A1_0| (Array Int Int)) (|G_8| (Array Int Int)) (|F_8| (Array Int Int)) (|.x.43| Int) (|.x.44| Int) (|.x.45| Int) (|.x.46| Int) (|.x.55| Int) (|.x.54| Int) (|.x.53| Int) (|.x.47| Int) (|.x.48| Int) (|.x.49| Int) (|.x.50| Int) (|.x.51| Int) (|.x.52| Int) (|A1| Int) (|Y| Int) (|N_3| Int) (|O_1| Int) (|P_0| Int) (|X| Int) (|K_7| Int) (|L_6| Int) (|M_5| Int) (|Q| Int) (|.loc.20| Bool) (|.loc.18| Bool) (|.loc.19| Bool) (|.xtv.1| (Array Int Int)) (|.xtv.2| (Array Int Int)) (|.xtv.3| (Array Int Int)) (|.xtv.4| (Array Int Int)) (|.xtv.5| (Array Int Int)) (|.xtv.6| (Array Int Int)) (|.xiv.1| (Array Int Int)) (|.xiv.2| (Array Int Int)) (|.xpv.1| (Array Int Int)) (|.xpv.2| (Array Int Int)) (|.xpv.3| (Array Int Int)) (|.xpv.4| (Array Int Int))) (=> (let ((.def_48 (not .loc.16))) (let ((.def_49 (not .loc.15))) (let ((.def_51 (select F_4 L_5))) (let ((.def_53 (<= 0 .def_51))) (let ((.def_56 (= I_6 2))) (let ((.def_59 (= J_6 3))) (let ((.def_62 (= K_6 4))) (let ((.def_65 (= H_6 1))) (let ((.def_67 (= .def_51 0))) (let ((.def_73 (select F_4 M_4))) (let ((.def_74 (<= 0 .def_73))) (let ((.def_92 (select F_4 H_6))) (let ((.def_94 (select F_4 N_2))) (let ((.def_119 (select F_4 O_0))) (let ((.def_125 (select F_4 I_6))) (and (or (and (and (and (and (and (and (and (and (and .def_48 .def_49) .def_53) .def_56) .def_59) .def_62) .def_65) .def_67) (= E_6 K_6)) (= E_6 4)) (and (or (and (and .def_67 (and .def_65 (and .def_62 (and .def_59 (and .def_56 (and (and .def_53 (and .def_48 (and .loc.15 .def_74))) (= E_6 3))))))) (= (+ .def_51 (* (- 1) .def_73)) (- 1))) (and (and .loc.16 (and (<= 0 .def_92) (<= 0 .def_94))) (or (and (and (and (and (and (and (and (and (and .def_49 .def_74) (= E_6 2)) (= J_6 2)) (= K_6 3)) (= L_5 4)) (= I_6 1)) (= .def_73 0)) (= (+ .def_73 (* (- 1) .def_94)) (- 1))) (= (+ .def_92 (* (- 1) .def_94)) 1)) (and .loc.15 (and (and (and (and (and (and (and (and (and (and (= (+ .def_94 (* (- 1) .def_119)) (- 1)) (= (+ .def_92 (* (- 1) .def_125)) (- 1))) (= .def_94 0)) (= (+ .def_92 (* (- 1) .def_119)) 1)) (= J_6 1)) (= M_4 4)) (= L_5 3)) (= K_6 2)) (= E_6 1)) (<= 0 .def_125)) (<= 0 .def_119)))))) (= E_6 J_6))) (and (and (= A_6 (select E_4 A_6)) (and (= B_6 (select E_4 B_6)) (= C_6 (select E_4 C_6)))) (not .loc.17)))))))))))))))))) (state |A_6| |B_6| |C_6| |E_6| |H_6| |I_6| |J_6| |K_6| |L_5| |M_4| |N_2| |O_0| |.y.4| |.y.5| |.y.6| |.y.7| |.y.8| |.y.9| |.y.10| |.y.11| |.y.12| |.y.13| |.y.14| |.loc.15| |.loc.16| |.loc.17| |G_6| |Z| |D_7.1| |H_7| |G_7| |F_6| |E_4| |F_4| |D_8.1| |A1_0| |G_8| |F_8|))))
(assert (forall ((|A_6| Int) (|B_6| Int) (|C_6| Int) (|E_6| Int) (|H_6| Int) (|I_6| Int) (|J_6| Int) (|K_6| Int) (|L_5| Int) (|M_4| Int) (|N_2| Int) (|O_0| Int) (|.y.4| Int) (|.y.5| Int) (|.y.6| Int) (|.y.7| Int) (|.y.8| Int) (|.y.9| Int) (|.y.10| Int) (|.y.11| Int) (|.y.12| Int) (|.y.13| Int) (|.y.14| Int) (|.loc.15| Bool) (|.loc.16| Bool) (|.loc.17| Bool) (|G_6| (Array Int Int)) (|Z| (Array Int Int)) (|D_7.1| (Array Int Int)) (|H_7| (Array Int Int)) (|G_7| (Array Int Int)) (|F_6| (Array Int Int)) (|E_4| (Array Int Int)) (|F_4| (Array Int Int)) (|D_8.1| (Array Int Int)) (|A1_0| (Array Int Int)) (|G_8| (Array Int Int)) (|F_8| (Array Int Int)) (|.x.43| Int) (|.x.44| Int) (|.x.45| Int) (|.x.46| Int) (|.x.55| Int) (|.x.54| Int) (|.x.53| Int) (|.x.47| Int) (|.x.48| Int) (|.x.49| Int) (|.x.50| Int) (|.x.51| Int) (|.x.52| Int) (|A1| Int) (|Y| Int) (|N_3| Int) (|O_1| Int) (|P_0| Int) (|X| Int) (|K_7| Int) (|L_6| Int) (|M_5| Int) (|Q| Int) (|.loc.20| Bool) (|.loc.18| Bool) (|.loc.19| Bool) (|.xtv.1| (Array Int Int)) (|.xtv.2| (Array Int Int)) (|.xtv.3| (Array Int Int)) (|.xtv.4| (Array Int Int)) (|.xtv.5| (Array Int Int)) (|.xtv.6| (Array Int Int)) (|.xiv.1| (Array Int Int)) (|.xiv.2| (Array Int Int)) (|.xpv.1| (Array Int Int)) (|.xpv.2| (Array Int Int)) (|.xpv.3| (Array Int Int)) (|.xpv.4| (Array Int Int))) (=> (and (state |A_6| |B_6| |C_6| |E_6| |H_6| |I_6| |J_6| |K_6| |L_5| |M_4| |N_2| |O_0| |.y.4| |.y.5| |.y.6| |.y.7| |.y.8| |.y.9| |.y.10| |.y.11| |.y.12| |.y.13| |.y.14| |.loc.15| |.loc.16| |.loc.17| |G_6| |Z| |D_7.1| |H_7| |G_7| |F_6| |E_4| |F_4| |D_8.1| |A1_0| |G_8| |F_8|) (let ((.def_48 (not .loc.16))) (let ((.def_49 (not .loc.15))) (let ((.def_56 (= I_6 2))) (let ((.def_59 (= J_6 3))) (let ((.def_62 (= K_6 4))) (let ((.def_65 (= H_6 1))) (let ((.def_191 (select H_7 .x.55))) (let ((.def_194 (select H_7 .x.54))) (let ((.def_197 (select H_7 .x.53))) (let ((.def_200 (select H_7 .x.47))) (let ((.def_203 (select H_7 .x.48))) (let ((.def_234 (select Z A1))) (let ((.def_236 (select G_6 .x.55))) (let ((.def_239 (select G_6 I_6))) (let ((.def_286 (select G_6 O_0))) (let ((.def_289 (select G_6 H_6))) (let ((.def_297 (select G_6 N_2))) (let ((.def_330 (= I_6 .x.48))) (let ((.def_356 (not .loc.18))) (let ((.def_359 (not .loc.19))) (let ((.def_362 (select G_6 .x.48))) (let ((.def_366 (select G_6 M_4))) (let ((.def_376 (not .loc.20))) (let ((.def_379 (<= 0 .def_366))) (let ((.def_390 (= I_6 K_7))) (let ((.def_392 (= J_6 L_6))) (let ((.def_394 (= K_6 M_5))) (let ((.def_396 (= L_5 N_3))) (let ((.def_398 (= M_4 O_1))) (let ((.def_405 (= H_6 .x.47))) (let ((.def_410 (select G_6 L_5))) (let ((.def_415 (select G_6 .x.47))) (let ((.def_431 (<= 0 .def_410))) (let ((.def_438 (= .def_410 0))) (let ((.def_446 (select G_6 N_3))) (and (and (not .loc.17) (and (= A_6 .x.43) (and (= B_6 .x.44) (and (= C_6 .x.45) (and (= E_6 .x.46) (and (and (= C_6 (select F_6 C_6)) (= B_6 (select F_6 B_6))) (= A_6 (select F_6 A_6)))))))) (or (or (and (or (and (and (and (and .loc.15 (and (<= 0 .def_191) (and (<= 0 .def_194) (and (<= 0 .def_197) (and (<= 0 .def_200) (and (<= 0 .def_203) (and (= .x.49 1) (and (= .x.50 2) (and (= .x.51 3) (and (= .x.52 4) (and (= .x.43 (select G_7 .x.43)) (and (= .x.44 (select G_7 .x.44)) (and (= .x.45 (select G_7 .x.45)) (and (= (+ .def_191 (* (- 1) .def_203)) 1) (and (= (+ .def_194 (* (- 1) .def_197)) 1) (and (= .def_197 0) (and (= (+ .def_194 (* (- 1) .def_200)) (- 1)) (and (= (+ .def_200 (* (- 1) .def_203)) (- 1)) (and (= .def_191 .def_234) (and (<= 0 .def_236) (and (= (+ .def_236 (* (- 1) .def_239)) 1) (and (and (= J_6 .x.49) (and (= K_6 .x.50) (and (= L_5 .x.51) (and (= M_4 .x.52) (and (= N_2 .x.53) (and (= O_0 .x.54) (and (not (= (select D_7.1 Y) 0)) (and (= (not (<= N_3 O_1)) (not (= (select D_7.1 P_0) 0))) (and (not (= (select D_7.1 X) 0)) (and (= (not (<= K_7 L_6)) (not (= (select D_7.1 M_5) 0))) (and (<= 0 N_3) (and (<= 0 K_7) (and (<= 0 .def_234) (and (= Q 0) (and (= O_1 3) (and (= .def_234 N_3) (and (= .def_234 K_7) (and (= L_6 0) (and (<= 0 .def_239) (and (<= 0 .def_286) (and (= L_5 3) (and (= M_4 4) (and (= K_6 2) (and (= J_6 1) (and (= (+ .def_286 (* (- 1) .def_289)) (- 1)) (and (= (+ .def_239 (* (- 1) .def_289)) 1) (and (= (+ .def_286 (* (- 1) .def_297)) 1) (= .def_297 0)))))))))))))))))))))))))))) .def_330)))))))))))))))))))))) .loc.20) .def_356) .def_359) (and (= N_2 P_0) (and (and (and (and (and (and (= (+ .def_289 (* (- 1) .def_362)) (- 1)) (and (= (+ .def_297 (* (- 1) .def_366)) 1) (and (= .def_366 0) (and (= (+ .def_289 (* (- 1) .def_297)) 1) (and (= I_6 1) (and (= L_5 4) (and (= K_6 3) (and (= J_6 2) (and (<= 0 .def_362) (and (and .def_49 (and (and .loc.18 .loc.19) .def_376)) .def_379)))))))))) .def_390) .def_392) .def_394) .def_396) .def_398))) (and .loc.16 (and (and (<= 0 .def_297) (<= 0 .def_289)) .def_405))) (and (= H_6 .x.48) (and (= (+ .def_366 (* (- 1) .def_410)) 1) (and (and (= (+ .def_366 (* (- 1) .def_415)) (- 1)) (and .def_65 (and .def_62 (and .def_59 (and .def_56 (and (and (<= 0 .def_415) (and .def_48 (and .def_398 (and .def_396 (and .def_394 (and .def_392 (and .def_390 (and .def_379 (and .def_376 (and .def_356 (and .loc.15 .loc.19))))))))))) .def_431)))))) .def_438)))) (and (= L_5 M_5) (and (= K_6 L_6) (and (= J_6 K_7) (and (= (+ .def_410 (* (- 1) .def_446)) (- 1)) (and (<= 0 .def_446) (and .def_438 (and .def_65 (and .def_62 (and .def_59 (and .def_56 (and .def_431 (and .def_48 (and .def_49 (and .def_376 (and .def_359 (and .loc.18 (and .def_330 .def_405))))))))))))))))))))))))))))))))))))))))))))))))))))))) (state |.x.43| |.x.44| |.x.45| |.x.46| |.x.47| |.x.48| |K_7| |L_6| |M_5| |N_3| |O_1| |P_0| |Q| |.x.49| |.x.50| |.x.51| |.x.52| |.x.53| |.x.54| |X| |Y| |A1| |.x.55| |.loc.18| |.loc.19| |.loc.20| |.xtv.1| |.xtv.2| |.xtv.3| |.xtv.4| |.xtv.5| |.xtv.6| |.xiv.1| |.xiv.2| |.xpv.1| |.xpv.2| |.xpv.3| |.xpv.4|))))
(assert (forall ((|A_6| Int) (|B_6| Int) (|C_6| Int) (|E_6| Int) (|H_6| Int) (|I_6| Int) (|J_6| Int) (|K_6| Int) (|L_5| Int) (|M_4| Int) (|N_2| Int) (|O_0| Int) (|.y.4| Int) (|.y.5| Int) (|.y.6| Int) (|.y.7| Int) (|.y.8| Int) (|.y.9| Int) (|.y.10| Int) (|.y.11| Int) (|.y.12| Int) (|.y.13| Int) (|.y.14| Int) (|.loc.15| Bool) (|.loc.16| Bool) (|.loc.17| Bool) (|G_6| (Array Int Int)) (|Z| (Array Int Int)) (|D_7.1| (Array Int Int)) (|H_7| (Array Int Int)) (|G_7| (Array Int Int)) (|F_6| (Array Int Int)) (|E_4| (Array Int Int)) (|F_4| (Array Int Int)) (|D_8.1| (Array Int Int)) (|A1_0| (Array Int Int)) (|G_8| (Array Int Int)) (|F_8| (Array Int Int)) (|.x.43| Int) (|.x.44| Int) (|.x.45| Int) (|.x.46| Int) (|.x.55| Int) (|.x.54| Int) (|.x.53| Int) (|.x.47| Int) (|.x.48| Int) (|.x.49| Int) (|.x.50| Int) (|.x.51| Int) (|.x.52| Int) (|A1| Int) (|Y| Int) (|N_3| Int) (|O_1| Int) (|P_0| Int) (|X| Int) (|K_7| Int) (|L_6| Int) (|M_5| Int) (|Q| Int) (|.loc.20| Bool) (|.loc.18| Bool) (|.loc.19| Bool) (|.xtv.1| (Array Int Int)) (|.xtv.2| (Array Int Int)) (|.xtv.3| (Array Int Int)) (|.xtv.4| (Array Int Int)) (|.xtv.5| (Array Int Int)) (|.xtv.6| (Array Int Int)) (|.xiv.1| (Array Int Int)) (|.xiv.2| (Array Int Int)) (|.xpv.1| (Array Int Int)) (|.xpv.2| (Array Int Int)) (|.xpv.3| (Array Int Int)) (|.xpv.4| (Array Int Int))) (=> (state |A_6| |B_6| |C_6| |E_6| |H_6| |I_6| |J_6| |K_6| |L_5| |M_4| |N_2| |O_0| |.y.4| |.y.5| |.y.6| |.y.7| |.y.8| |.y.9| |.y.10| |.y.11| |.y.12| |.y.13| |.y.14| |.loc.15| |.loc.16| |.loc.17| |G_6| |Z| |D_7.1| |H_7| |G_7| |F_6| |E_4| |F_4| |D_8.1| |A1_0| |G_8| |F_8|) (let ((.def_471 (select A1_0 .y.13))) (let ((.def_487 (select G_8 I_6))) (let ((.def_489 (select G_8 H_6))) (let ((.def_495 (select G_8 .y.10))) (let ((.def_501 (select G_8 .y.9))) (let ((.def_508 (select G_8 .y.14))) (not (and (and .loc.17 (and (not .loc.16) (not .loc.15))) (and (and (<= .def_471 1) (and (and (and (and (and (and (and (and (and (and (and (and (and (and (and (and (and (and (and (and (and (and (and (and (and (and (and (and (not (= (select D_8.1 .y.12) 0)) (= (not (= (select D_8.1 O_0) 0)) (not (<= M_4 N_2)))) (not (= (select D_8.1 .y.11) 0))) (= (+ .def_487 (* (- 1) .def_489)) 1)) (= (+ .def_489 (* (- 1) .def_495)) 1)) (= .def_501 0)) (= (+ .def_495 (* (- 1) .def_501)) 1)) (= (+ .def_487 (* (- 1) .def_508)) (- 1))) (= A_6 (select F_8 A_6))) (= C_6 (select F_8 C_6))) (= B_6 (select F_8 B_6))) (= .def_471 .def_508)) (= M_4 .def_471)) (= K_6 0)) (= J_6 .def_471)) (= N_2 3)) (= .y.4 0)) (= .y.8 4)) (= .y.7 3)) (= .y.6 2)) (= .y.5 1)) (<= 0 .def_487)) (<= 0 .def_489)) (<= 0 .def_501)) (<= 0 .def_495)) (<= 0 .def_508)) (<= 0 .def_471)) (<= 0 M_4)) (<= 0 J_6))) (= (not (= (select D_8.1 L_5) 0)) (not (<= J_6 K_6)))))))))))))))
(check-sat)
